33D32945 STP File, STP Format Version 1.0

SECTION Comments
Name "cube_n13_d2_s4"
Problem "Euclidean Steiner Tree Problem"
Remark "Generated with STPGenerator. 2 dimensions."
END

SECTION Graph
Nodes 13
END

SECTION Coordinates
DD 0 0.9164578756 0.1339819669
DD 1 0.1912108968 0.2600808285
DD 2 0.2142811954 0.3601613163
DD 3 0.4198029756 0.6540782580
DD 4 0.1943656375 0.3097259371
DD 5 0.5068725648 0.1146662767
DD 6 0.5706952487 0.6701787769
DD 7 0.9271462466 0.2973426200
DD 8 0.6824838476 0.0102189095
DD 9 0.7238869563 0.0950620273
DD 10 0.2335532183 0.1585821640
DD 11 0.7489994023 0.9178017638
DD 12 0.3488313283 0.3430800132
END
